&GLOBAL
  PRINT_LEVEL LOW
  PROJECT GROMACS
  RUN_TYPE ENERGY_FORCE
&END GLOBAL
&FORCE_EVAL
  METHOD QMMM
  &DFT
    ChArGe 2    !Some comment
    MuLtIpLiCiTy   3  !Another comment
    BASIS_SET_FILE_NAME  BASIS_MOLOPT
    POTENTIAL_FILE_NAME  POTENTIAL
    &MGRID
      NGRIDS 5
      CUTOFF 450
      REL_CUTOFF 50
      COMMENSURATE
    &END MGRID
    &SCF
      SCF_GUESS RESTART
      EPS_SCF 5.0E-8
      MAX_SCF 20
      &OT  T
        MINIMIZER  DIIS
        STEPSIZE   0.15
        PRECONDITIONER FULL_ALL
      &END OT
      &OUTER_SCF  T
        MAX_SCF 20
        EPS_SCF 5.0E-8
      &END OUTER_SCF
    &END SCF
    &XC
      DENSITY_CUTOFF     1.0E-12
      GRADIENT_CUTOFF    1.0E-12
      TAU_CUTOFF         1.0E-12
      &XC_FUNCTIONAL PBE
      &END XC_FUNCTIONAL
    &END XC
    &QS
     METHOD GPW
     EPS_DEFAULT 1.0E-10
     EXTRAPOLATION ASPC
     EXTRAPOLATION_ORDER  4
    &END QS
  &END DFT
  &QMMM
    &CELL
      A 16.180 0.000 0.000
      B 0.000 10.000 0.000
      C 0.000 0.000 17.680
      PERIODIC XYZ
    &END CELL
    CENTER EVERY_STEP
    CENTER_TYPE PBC_AWARE_MAX_MINUS_MIN
    ECOUPL GAUSS
    USE_GEEP_LIB 12
    &PERIODIC
      GMAX     1.0E+00
      &MULTIPOLE ON
         RCUT     1.0E+01
         EWALD_PRECISION     1.0E-06
      &END
    &END PERIODIC
    &QM_KIND H  
      MM_INDEX 2 4 6 9 11 13 15 18 20 22 24 26
    &END QM_KIND
    &QM_KIND C  
      MM_INDEX 1 3 5 7 8 10 12 14 16 17 19 21 23 25
    &END QM_KIND
  &END QMMM
  &MM
    &FORCEFIELD
      DO_NONBONDED FALSE
    &END FORCEFIELD
    &POISSON
      &EWALD
        EWALD_TYPE NONE
      &END EWALD
    &END POISSON
  &END MM
  &SUBSYS
    &CELL
      A 200.000 0.000 0.000
      B 0.000 200.000 0.000
      C 0.000 0.000 200.000
      PERIODIC XYZ
    &END CELL
    &TOPOLOGY
      COORD_FILE_NAME path/to/some_generic.pdb !one more comment
      COORD_FILE_FORMAT PDB
      CHARGE_EXTENDED TRUE
      CONNECTIVITY OFF
      &GENERATE
         &ISOLATED_ATOMS
            LIST 1..26
         &END
      &END GENERATE
    &END TOPOLOGY
    &KIND H  
      ELEMENT H  
      BASIS_SET DZVP-MOLOPT-GTH
      POTENTIAL GTH-PBE
    &END KIND
    &KIND C  
      ELEMENT C  
      BASIS_SET DZVP-MOLOPT-GTH
      POTENTIAL GTH-PBE
    &END KIND
    &KIND X
      ELEMENT H
    &END KIND
  &END SUBSYS
&END FORCE_EVAL
